RT is False
Default write of storage_offers_DA.csv just to have a file (but constraint should be inactive)
Reading model...
...model read.
creating competitive generators file...
...competitive generators recorded.
Loading data...
.. day-ahead data with real-time VRE data read.
Compiling instance...
...instance created.
Creating Offer Mitigation (model will solve as dispatch if TRUE)...
NOTE: storage offers will not be mitigated
...storage offer mitigation file created
Converting model to MPEC...
...converted
NOTE: initial MIP solve with only storage competitive to get feasible solution
Solving...

Welcome to IBM(R) ILOG(R) CPLEX(R) Interactive Optimizer 12.9.0.0
  with Simplex, Mixed Integer & Barrier Optimizers
5725-A06 5725-A29 5724-Y48 5724-Y49 5724-Y54 5724-Y55 5655-Y21
Copyright IBM Corp. 1988, 2019.  All Rights Reserved.

Type 'help' for a list of available commands.
Type 'help' followed by a command name for more
information on commands.

CPLEX> Logfile 'cplex.log' closed.
Logfile 'C:\Users\Luke\Desktop\test919\logs\tmpllo151lb.cplex.log' open.
CPLEX> New value for parallel optimization mode: -1
CPLEX> New value for mixed integer optimality gap tolerance: 0.01
CPLEX> New value for integrality tolerance: 1e-09
CPLEX> New value for feasibility tolerance: 0.01
CPLEX> New value for deterministic time limit in ticks: 75000
CPLEX> Problem 'C:\Users\Luke\Desktop\test919\logs\tmpb6tbprks.pyomo.lp' read.
Read time = 0.20 sec. (14.73 ticks)
CPLEX> Problem name         : C:\Users\Luke\Desktop\test919\logs\tmpb6tbprks.pyomo.lp
Objective sense      : Maximize
Variables            :   53805  [Nneg: 1,  Box: 22000,  Free: 4464,
                                 Binary: 27340]
Objective nonzeros   :    9078
Linear constraints   :  123205  [Less: 41346,  Greater: 59096,  Equal: 22763]
  Nonzeros           :  291705
  RHS nonzeros       :   67491

Variables            : Min LB: -5000.000        Max UB: 1000000.       
Objective nonzeros   : Min   : 0.008333333      Max   : 2500.000       
Linear constraints   :
  Nonzeros           : Min   : 0.008333333      Max   : 1000000.       
  RHS nonzeros       : Min   : 0.008333333      Max   : 1000000.       
CPLEX> CPXPARAM_Parallel                                -1
CPXPARAM_Simplex_Tolerances_Feasibility          0.01
CPXPARAM_DetTimeLimit                            75000
CPXPARAM_MIP_Tolerances_MIPGap                   0.01
CPXPARAM_MIP_Tolerances_Integrality              1.0000000000000001e-09
Tried aggregator 3 times.
MIP Presolve eliminated 88683 rows and 19031 columns.
MIP Presolve added 3352 rows and 0 columns.
MIP Presolve modified 24840 coefficients.
Aggregator did 12948 substitutions.
Reduced MIP has 24926 rows, 21270 columns, and 71064 nonzeros.
Reduced MIP has 8415 binaries, 0 generals, 0 SOSs, and 0 indicators.
Presolve time = 0.23 sec. (173.37 ticks)
Probing fixed 386 vars, tightened 2858 bounds.
Probing time = 1.45 sec. (912.47 ticks)
Tried aggregator 2 times.
MIP Presolve eliminated 869 rows and 775 columns.
MIP Presolve modified 2234 coefficients.
Aggregator did 41 substitutions.
Reduced MIP has 24016 rows, 20454 columns, and 68423 nonzeros.
Reduced MIP has 8028 binaries, 0 generals, 0 SOSs, and 0 indicators.
Presolve time = 0.09 sec. (68.55 ticks)
Probing time = 0.03 sec. (15.70 ticks)
Clique table members: 6510.
MIP emphasis: balance optimality and feasibility.
MIP search method: dynamic search.
Parallel mode: opportunistic, using up to 24 threads.
Root relaxation solution time = 0.33 sec. (450.29 ticks)

        Nodes                                         Cuts/
   Node  Left     Objective  IInf  Best Integer    Best Bound    ItCnt     Gap

      0     0      -22.2582   735                    -22.2582     2827         
      0     0      -22.2582    29                    Cuts: 11     2832         
      0     0      -22.2582    29                    Cuts: 14     2835         
      0     0      -22.2582    23                 Flowcuts: 5     2836         
      0     0      -22.2582    23                 Flowcuts: 8     2836         
      0     3    infeasible                       Impl Bds: 1     3007         
Elapsed time = 7.55 sec. (5001.72 ticks, tree = 0.02 MB, solutions = 0)
*   301    59      integral     0    -2871.4770      -50.3214     3848   98.25%
    571   127    -1436.6387     1    -1438.8444      -50.3214     5673   96.50%
    769   205        cutoff          -1438.8444      -50.3214     6821   96.50%
*   841   199      integral     0     -674.0115      -50.3214     6776   92.53%
   1132   205     -514.8161     1     -130.9020      -50.3214     6839   61.56%
   1576    50     -117.9080     2     -130.9020      -50.3214     7822   61.56%
   1995    99      -56.1225     4     -130.9020      -50.3214     8187   61.56%
   2387   396    infeasible           -130.9020      -50.3214    10270   61.56%
   2759   597      -53.4313     4     -130.9020      -50.3214    11448   61.56%
   3640   884      -70.7462     1     -130.9020      -50.3214    13117   61.56%
Elapsed time = 14.70 sec. (7930.83 ticks, tree = 3.76 MB, solutions = 9)
   4201   997      -90.9552     1     -130.9020      -50.3214    14696   61.56%
   4605  1015      -70.7462     1     -130.9020      -50.3214    14963   61.56%
   4931  1037        cutoff           -130.9020      -50.3214    15121   61.56%
   5193  1091        cutoff           -130.9020      -50.3214    15567   61.56%
   5425  1126        cutoff           -130.9020      -50.3214    15760   61.56%
   5650  1205      -70.7462     3     -130.9020      -50.3214    16370   61.56%
   5844  1268      -63.1425     1     -130.9020      -50.3214    16781   61.56%
   6034  1227      -62.5439     2     -130.9020      -50.3214    16500   61.56%
   6214  1278        cutoff           -130.9020      -50.3214    16835   61.56%
   6406  1327      -66.9406     3     -130.9020      -50.3214    17126   61.56%
Elapsed time = 26.66 sec. (17500.44 ticks, tree = 6.22 MB, solutions = 9)
   6589  1370        cutoff           -130.9020      -50.3214    17337   61.56%
   6770  1380      -66.9406     1     -130.9020      -50.3214    17388   61.56%
   6966  1419      -70.7462     2     -130.9020      -50.3214    17614   61.56%
   7114  1425        cutoff           -130.9020      -50.3214    17690   61.56%
   7252  1446        cutoff           -130.9020      -50.3214    17910   61.56%
   7324  1455      -70.7462     1     -130.9020      -50.3214    17970   61.56%
   7333  1482    infeasible           -130.9020      -52.1111    22520   60.19%
   9681  1152    infeasible           -130.9020      -53.0153    27963   59.50%
  14123  3311      -79.7995     1     -130.9020      -55.6221    42964   57.51%
  17094  4231      -92.1557     1     -130.9020      -64.6524    57481   50.61%
Elapsed time = 42.48 sec. (30179.83 ticks, tree = 14.80 MB, solutions = 9)
  21267  6073      -82.6898     1     -130.9020      -70.5785    90934   46.08%
  26564  8977      -82.6898     1     -130.9020      -70.5785   110064   46.08%
  31314 11882      -84.1418     1     -130.9020      -71.6018   126308   45.30%
  34606 13245        cutoff           -130.9020      -72.8010   151000   44.39%
  38951 13825        cutoff           -130.9020      -81.0678   186476   38.07%
  45972  7449        cutoff           -130.9020      -84.1418   249932   35.72%
* 46965  7761      integral     0      -53.2858      -84.1418   247425  -57.91%

GUB cover cuts applied:  3
Clique cuts applied:  2
Cover cuts applied:  5
Implied bound cuts applied:  185
Flow cuts applied:  10
Mixed integer rounding cuts applied:  36
Gomory fractional cuts applied:  18

Root node processing (before b&c):
  Real time             =    7.20 sec. (4999.50 ticks)
Parallel b&c, 24 threads:
  Real time             =   49.08 sec. (31507.45 ticks)
  Sync time (average)   =    1.00 sec.
  Wait time (average)   =    0.03 sec.
                          ------------
Total (root+branch&cut) =   56.28 sec. (36506.95 ticks)

Solution pool: 10 solutions saved.

MIP - Integer optimal solution:  Objective = -5.3285760488e+01
Solution time =   56.30 sec.  Iterations = 276317  Nodes = 47096
Deterministic time = 36507.10 ticks  (648.47 ticks/sec)

CPLEX> Incumbent solution written to file 'C:\Users\Luke\Desktop\test919\logs\tmp2siru6pw.cplex.sol'.
CPLEX> NOTE: no warmstart specified for MIP iteration, default behavior is true
NOTE: resolving with all competitive generators using storage-only solution to warmstart
Solving...

Welcome to IBM(R) ILOG(R) CPLEX(R) Interactive Optimizer 12.9.0.0
  with Simplex, Mixed Integer & Barrier Optimizers
5725-A06 5725-A29 5724-Y48 5724-Y49 5724-Y54 5724-Y55 5655-Y21
Copyright IBM Corp. 1988, 2019.  All Rights Reserved.

Type 'help' for a list of available commands.
Type 'help' followed by a command name for more
information on commands.

CPLEX> Logfile 'cplex.log' closed.
Logfile 'C:\Users\Luke\Desktop\test919\logs\tmp1x9t397_.cplex.log' open.
CPLEX> New value for parallel optimization mode: -1
CPLEX> New value for mixed integer optimality gap tolerance: 0.01
CPLEX> New value for integrality tolerance: 1e-09
CPLEX> New value for feasibility tolerance: 0.01
CPLEX> New value for deterministic time limit in ticks: 75000
CPLEX> Problem 'C:\Users\Luke\Desktop\test919\logs\tmp4yq2lreg.pyomo.lp' read.
Read time = 0.20 sec. (14.75 ticks)
CPLEX> MIP start file 'C:\Users\Luke\Desktop\test919\logs\tmp4rjtyuon.cplex.mst' read.
CPLEX> Problem name         : C:\Users\Luke\Desktop\test919\logs\tmp4yq2lreg.pyomo.lp
Objective sense      : Maximize
Variables            :   54525  [Nneg: 1,  Box: 22720,  Free: 4464,
                                 Binary: 27340]
Objective nonzeros   :    9798
Linear constraints   :  123205  [Less: 41346,  Greater: 59096,  Equal: 22763]
  Nonzeros           :  291705
  RHS nonzeros       :   67491

Variables            : Min LB: -5000.000        Max UB: 1000000.       
Objective nonzeros   : Min   : 0.008333333      Max   : 2500.000       
Linear constraints   :
  Nonzeros           : Min   : 0.008333333      Max   : 1000000.       
  RHS nonzeros       : Min   : 0.008333333      Max   : 1000000.       
CPLEX> CPXPARAM_Parallel                                -1
CPXPARAM_Simplex_Tolerances_Feasibility          0.01
CPXPARAM_DetTimeLimit                            75000
CPXPARAM_MIP_Tolerances_MIPGap                   0.01
CPXPARAM_MIP_Tolerances_Integrality              1.0000000000000001e-09
Warning:  No solution found from 1 MIP starts.
Retaining values of one MIP start for possible repair.
Tried aggregator 3 times.
MIP Presolve eliminated 88683 rows and 19751 columns.
MIP Presolve added 3352 rows and 0 columns.
MIP Presolve modified 24840 coefficients.
Aggregator did 12948 substitutions.
Reduced MIP has 24926 rows, 21270 columns, and 71064 nonzeros.
Reduced MIP has 8415 binaries, 0 generals, 0 SOSs, and 0 indicators.
Presolve time = 0.23 sec. (173.73 ticks)
Probing fixed 386 vars, tightened 2858 bounds.
Probing time = 1.42 sec. (912.47 ticks)
Tried aggregator 2 times.
MIP Presolve eliminated 869 rows and 775 columns.
MIP Presolve modified 2234 coefficients.
Aggregator did 41 substitutions.
Reduced MIP has 24016 rows, 20454 columns, and 68423 nonzeros.
Reduced MIP has 8028 binaries, 0 generals, 0 SOSs, and 0 indicators.
Presolve time = 0.08 sec. (68.55 ticks)
Probing time = 0.03 sec. (15.70 ticks)
Clique table members: 6510.
MIP emphasis: balance optimality and feasibility.
MIP search method: dynamic search.
Parallel mode: opportunistic, using up to 24 threads.
Root relaxation solution time = 0.34 sec. (450.29 ticks)

        Nodes                                         Cuts/
   Node  Left     Objective  IInf  Best Integer    Best Bound    ItCnt     Gap

      0     0      -22.2582   735                    -22.2582     2827         
      0     0      -22.2582    29                    Cuts: 11     2832         
      0     0      -22.2582    29                    Cuts: 14     2835         
      0     0      -22.2582    23                 Flowcuts: 5     2836         
      0     0      -22.2582    23                 Flowcuts: 8     2836         
Repair heuristic found nothing.
      0     3    infeasible                       Impl Bds: 1     3007         
Elapsed time = 7.94 sec. (5096.92 ticks, tree = 0.02 MB, solutions = 0)
    392   145    infeasible                          -50.3214     5805         
*   397+  159                        -2871.4770      -50.3214            98.25%
*   437   162      integral     0    -2871.4770      -50.3214     5412   98.25%
*   627   162      integral     0    -1569.3161      -50.3214     6969   96.79%
*   680   194      integral     0     -595.3967      -50.3214     8837   91.55%
    926   113        cutoff           -595.3967      -50.3214     9534   91.55%
   1140   110        cutoff           -595.3967      -50.3214     9603   91.55%
   1309   149        cutoff           -595.3967      -50.3214    10013   91.55%
   1455   151        cutoff           -595.3967      -50.3214    10043   91.55%
   1905   160     -514.8161     1     -595.3967      -50.3214    10485   91.55%
Elapsed time = 12.84 sec. (7552.41 ticks, tree = 0.47 MB, solutions = 5)
   2383   240        cutoff           -595.3967      -50.3214    11230   91.55%
   2734   243        cutoff           -595.3967      -50.3214    11586   91.55%
   2996   244     -514.8161     2     -595.3967      -50.3214    11573   91.55%
   3262   294     -520.4870     5     -595.3967      -50.3214    12369   91.55%
   3562   297     -514.8161     2     -595.3967      -50.3214    12438   91.55%
   3776   364        cutoff           -595.3967      -50.3214    13120   91.55%
   3962   379        cutoff           -595.3967      -50.3214    13225   91.55%
   4157   382     -524.9433     1     -595.3967      -50.3214    13239   91.55%
   4340   445     -514.8161     1     -595.3967      -50.3214    13702   91.55%
   4507   445     -514.8161     1     -595.3967      -50.3214    13705   91.55%
Elapsed time = 23.80 sec. (17124.26 ticks, tree = 1.84 MB, solutions = 5)
   4690   529     -514.8161     4     -595.3967      -50.3214    14316   91.55%
   4878   527        cutoff           -595.3967      -50.3214    14299   91.55%
   5068   530     -514.8161     1     -595.3967      -50.3214    14342   91.55%
   5205   564     -524.9433     1     -595.3967      -50.3214    14556   91.55%
   5347   602     -514.8161     1     -595.3967      -50.3214    14856   91.55%
   5494   628        cutoff           -595.3967      -50.3214    15127   91.55%
   5635   614        cutoff           -595.3967      -50.3214    14992   91.55%
   5757   614     -514.8161     2     -595.3967      -50.3214    15031   91.55%
   5884   639     -514.8161     1     -595.3967      -50.3214    15226   91.55%
   5990   639     -514.8161     2     -595.3967      -50.3214    15241   91.55%
Elapsed time = 33.47 sec. (26746.70 ticks, tree = 2.76 MB, solutions = 5)
   6109   649     -514.8161     1     -595.3967      -50.3214    15448   91.55%
   6225   660     -514.8161     1     -595.3967      -50.3214    15557   91.55%
   6322   674        cutoff           -595.3967      -50.3214    15742   91.55%
   6419   664     -514.8161     2     -595.3967      -50.3214    15627   91.55%
   6534   687        cutoff           -595.3967      -50.3214    15859   91.55%
   6645   682        cutoff           -595.3967      -50.3214    15817   91.55%
   6738   683     -524.9433     1     -595.3967      -50.3214    15802   91.55%
   6829   696     -514.8161     2     -595.3967      -50.3214    16032   91.55%
   6927   692        cutoff           -595.3967      -50.3214    15989   91.55%
   7014   697     -514.8161     1     -595.3967      -50.3214    16060   91.55%
Elapsed time = 42.70 sec. (36372.30 ticks, tree = 3.08 MB, solutions = 5)
   7105   701        cutoff           -595.3967      -50.3214    16094   91.55%
   7203   705        cutoff           -595.3967      -50.3214    16162   91.55%
   7299   725        cutoff           -595.3967      -50.3214    16368   91.55%
   7402   724     -514.8161     2     -595.3967      -50.3214    16337   91.55%
   7478   725        cutoff           -595.3967      -50.3214    16356   91.55%
   7590   722        cutoff           -595.3967      -50.3214    16321   91.55%
   7698   746        cutoff           -595.3967      -50.3214    16976   91.55%
   7794   746        cutoff           -595.3967      -50.3214    16978   91.55%
   7898   743     -514.8161     1     -595.3967      -50.3214    16914   91.55%
   8000   742        cutoff           -595.3967      -50.3214    16927   91.55%
Elapsed time = 51.97 sec. (45959.79 ticks, tree = 3.29 MB, solutions = 5)
   8110   745     -514.8161     3     -595.3967      -50.3214    16968   91.55%
   8210   763        cutoff           -595.3967      -50.3214    17163   91.55%
   8303   763        cutoff           -595.3967      -50.3214    17166   91.55%
   8388   895     -524.9433     1     -595.3967      -50.3214    18411   91.55%
   8474   864     -524.9433     1     -595.3967      -50.3214    18119   91.55%
   8569   866        cutoff           -595.3967      -50.3214    18089   91.55%
   8639   844        cutoff           -595.3967      -50.3214    17916   91.55%
   8710   916     -514.8161     1     -595.3967      -50.3214    18775   91.55%
   8789   905        cutoff           -595.3967      -50.3214    18523   91.55%
   8865   924        cutoff           -595.3967      -50.3214    18927   91.55%
Elapsed time = 61.53 sec. (55576.41 ticks, tree = 4.23 MB, solutions = 5)
   8938   943        cutoff           -595.3967      -50.3214    19190   91.55%
   9024   944     -514.8161     1     -595.3967      -50.3214    19192   91.55%
   9112   969        cutoff           -595.3967      -50.3214    19690   91.55%
   9187   977        cutoff           -595.3967      -50.3214    19766   91.55%
   9271   962        cutoff           -595.3967      -50.3214    19613   91.55%
   9335   973        cutoff           -595.3967      -50.3214    19741   91.55%
   9419   978        cutoff           -595.3967      -50.3214    19827   91.55%
   9488   970     -524.9433     1     -595.3967      -50.3214    19698   91.55%
   9559   982     -524.9433     1     -595.3967      -50.3214    19896   91.55%
   9621   981     -514.8161     1     -595.3967      -50.3214    19927   91.55%
Elapsed time = 70.34 sec. (65270.04 ticks, tree = 4.52 MB, solutions = 5)
   9676   981        cutoff           -595.3967      -50.3214    19918   91.55%
   9717   982     -514.8161     1     -595.3967      -50.3214    19899   91.55%
   9736   991     -514.8161     1     -595.3967      -50.3214    20043   91.55%
   9738  1003    infeasible           -595.3967      -51.0722    24991   91.42%
  11041    99      -64.4040     3     -595.3967      -51.9009    26902   91.28%
  12479   503     -172.0725     1     -595.3967      -52.1894    31525   91.23%
  14002   912     -133.3714     5     -595.3967      -52.4515    34788   91.19%

Clique cuts applied:  2
Cover cuts applied:  2
Implied bound cuts applied:  35
Flow cuts applied:  16
Mixed integer rounding cuts applied:  13
Gomory fractional cuts applied:  4

Root node processing (before b&c):
  Real time             =    7.58 sec. (5092.76 ticks)
Parallel b&c, 24 threads:
  Real time             =   76.05 sec. (69966.55 ticks)
  Sync time (average)   =    0.99 sec.
  Wait time (average)   =    0.03 sec.
                          ------------
Total (root+branch&cut) =   83.63 sec. (75059.31 ticks)

Solution pool: 5 solutions saved.

MIP - Deterministic time limit exceeded, integer feasible:  Objective = -5.9539671215e+02
Current MIP best bound = -5.2451493004e+01 (gap = 542.945, 91.19%)
Solution time =   83.64 sec.  Iterations = 42953  Nodes = 14527 (1751)
Deterministic time = 75059.47 ticks  (897.41 ticks/sec)

CPLEX> Incumbent solution written to file 'C:\Users\Luke\Desktop\test919\logs\tmpf103efsn.cplex.sol'.
CPLEX> Exporting results... 
